NAME : P133212.37242.tour
COMMENT : Length = 37242
COMMENT : Found by LKH-3 [Keld Helsgaun] Tue Dec 17 14:07:49 2024
TYPE : TOUR
DIMENSION : 170
TOUR_SECTION
1
78
90
82
74
99
83
75
94
73
86
77
98
89
85
129
107
116
106
120
126
118
110
114
115
119
103
104
108
121
130
111
113
127
123
122
128
109
112
125
124
117
105
76
79
80
72
101
92
71
100
88
87
81
96
97
91
84
93
102
95
161
2
162
3
163
4
164
5
135
149
153
133
134
140
146
158
150
157
138
144
137
141
147
131
154
142
160
139
136
156
132
155
148
159
145
151
143
152
165
6
166
7
167
8
168
9
32
31
36
21
20
34
24
12
41
25
35
13
22
39
16
33
17
42
38
26
28
19
18
29
11
27
30
15
37
40
14
23
68
58
50
49
67
51
61
54
63
48
46
57
47
70
43
69
56
62
65
60
55
44
64
59
66
53
45
52
169
10
170
-1
EOF
